Maximize

5 x_0 + 3 x_1 + 3 x_2 + 3 x_3 + 1 x_4 + 3 x_5 + 3 x_6 + 0 x_7 + 1 x_8 + 5 x_9 + 1 x_10 + 5 x_11 + 4 x_12 + 0 x_13 + 2 x_14 + 1 x_15 + 4 x_16 + 3 x_17 + 4 x_18 + 4 x_19 + 4 x_20 + 4 x_21 + 2 x_22 + 1 x_23 + 2 x_24 + 0 x_25 + 2 x_26 + 2 x_27 + 4 x_28 + 2 x_29 + 3 x_30 + 5 x_31 + 3 x_32 + 2 x_33 + 2 x_34 + 4 x_35 + 1 x_36 + 4 x_37 + 0 x_38 + 1 x_39 + 1 x_40 + 5 x_41 + 1 x_42 + 1 x_43 + 1 x_44 + 0 x_45 + 0 x_46 + 4 x_47 + 1 x_48 + 4 x_49


Subject To

a0: 0 x_0 + 0 x_1 + 0 x_2 + 0 x_3 + 0 x_4 + 1 x_5 + 0 x_6 + 1 x_7 + 0 x_8 + 0 x_9 + 0 x_10 + 0 x_11 + 0 x_12 + 0 x_13 + 0 x_14 + 0 x_15 + 0 x_16 + 0 x_17 + 0 x_18 + 0 x_19 + 0 x_20 + 0 x_21 + 0 x_22 + 0 x_23 + 0 x_24 + 0 x_25 + 0 x_26 + 0 x_27 + 0 x_28 + 0 x_29 + 0 x_30 + 0 x_31 + 0 x_32 + 0 x_33 + 0 x_34 + 0 x_35 + 0 x_36 + 0 x_37 + 0 x_38 + 0 x_39 + 0 x_40 + 0 x_41 + 0 x_42 + 0 x_43 + 0 x_44 + 0 x_45 + 0 x_46 + 0 x_47 + 1 x_48 + 0 x_49 >= 1
a1: 0 x_0 + 0 x_1 + 0 x_2 + 0 x_3 + 0 x_4 + 0 x_5 + 0 x_6 + 0 x_7 + 0 x_8 + 0 x_9 + 0 x_10 + 0 x_11 + 0 x_12 + 0 x_13 + 0 x_14 + 0 x_15 + 0 x_16 + 0 x_17 + 0 x_18 + 1 x_19 + 0 x_20 + 0 x_21 + 0 x_22 + 0 x_23 + 0 x_24 + 0 x_25 + 0 x_26 + 0 x_27 + 0 x_28 + 0 x_29 + 0 x_30 + 1 x_31 + 0 x_32 + 0 x_33 + 0 x_34 + 0 x_35 + 0 x_36 + 0 x_37 + 1 x_38 + 0 x_39 + 1 x_40 + 0 x_41 + 0 x_42 + 0 x_43 + 0 x_44 + 0 x_45 + 0 x_46 + 0 x_47 + 1 x_48 + 0 x_49 >= 1
a2: 0 x_0 + 0 x_1 + 0 x_2 + 0 x_3 + 0 x_4 + 0 x_5 + 0 x_6 + 1 x_7 + 0 x_8 + 0 x_9 + 0 x_10 + 1 x_11 + 0 x_12 + 0 x_13 + 0 x_14 + 0 x_15 + 0 x_16 + 0 x_17 + 0 x_18 + 0 x_19 + 0 x_20 + 0 x_21 + 0 x_22 + 0 x_23 + 0 x_24 + 0 x_25 + 1 x_26 + 0 x_27 + 0 x_28 + 0 x_29 + 0 x_30 + 0 x_31 + 1 x_32 + 0 x_33 + 0 x_34 + 0 x_35 + 0 x_36 + 0 x_37 + 0 x_38 + 0 x_39 + 1 x_40 + 0 x_41 + 0 x_42 + 0 x_43 + 0 x_44 + 0 x_45 + 0 x_46 + 0 x_47 + 0 x_48 + 1 x_49 >= 1
a3: 0 x_0 + 0 x_1 + 0 x_2 + 0 x_3 + 0 x_4 + 0 x_5 + 0 x_6 + 0 x_7 + 0 x_8 + 0 x_9 + 0 x_10 + 0 x_11 + 1 x_12 + 0 x_13 + 0 x_14 + 0 x_15 + 1 x_16 + 0 x_17 + 0 x_18 + 1 x_19 + 0 x_20 + 0 x_21 + 0 x_22 + 1 x_23 + 1 x_24 + 0 x_25 + 0 x_26 + 0 x_27 + 0 x_28 + 0 x_29 + 0 x_30 + 0 x_31 + 1 x_32 + 0 x_33 + 0 x_34 + 1 x_35 + 0 x_36 + 0 x_37 + 0 x_38 + 0 x_39 + 0 x_40 + 0 x_41 + 0 x_42 + 0 x_43 + 0 x_44 + 0 x_45 + 0 x_46 + 0 x_47 + 0 x_48 + 0 x_49 >= 1
a4: 0 x_0 + 0 x_1 + 0 x_2 + 0 x_3 + 0 x_4 + 0 x_5 + 0 x_6 + 0 x_7 + 0 x_8 + 0 x_9 + 0 x_10 + 0 x_11 + 0 x_12 + 0 x_13 + 0 x_14 + 0 x_15 + 1 x_16 + 0 x_17 + 1 x_18 + 0 x_19 + 0 x_20 + 0 x_21 + 0 x_22 + 0 x_23 + 0 x_24 + 0 x_25 + 0 x_26 + 0 x_27 + 0 x_28 + 0 x_29 + 0 x_30 + 0 x_31 + 0 x_32 + 0 x_33 + 0 x_34 + 0 x_35 + 1 x_36 + 0 x_37 + 0 x_38 + 0 x_39 + 0 x_40 + 1 x_41 + 0 x_42 + 1 x_43 + 0 x_44 + 0 x_45 + 0 x_46 + 0 x_47 + 0 x_48 + 0 x_49 >= 1
a5: 1 x_0 + 0 x_1 + 0 x_2 + 0 x_3 + 0 x_4 + 0 x_5 + 0 x_6 + 0 x_7 + 0 x_8 + 0 x_9 + 1 x_10 + 1 x_11 + 0 x_12 + 0 x_13 + 0 x_14 + 0 x_15 + 0 x_16 + 0 x_17 + 0 x_18 + 0 x_19 + 0 x_20 + 1 x_21 + 0 x_22 + 1 x_23 + 0 x_24 + 0 x_25 + 1 x_26 + 0 x_27 + 0 x_28 + 0 x_29 + 0 x_30 + 0 x_31 + 0 x_32 + 0 x_33 + 1 x_34 + 0 x_35 + 0 x_36 + 0 x_37 + 0 x_38 + 0 x_39 + 1 x_40 + 0 x_41 + 0 x_42 + 0 x_43 + 0 x_44 + 1 x_45 + 0 x_46 + 0 x_47 + 0 x_48 + 0 x_49 >= 1
a6: 1 x_0 + 0 x_1 + 0 x_2 + 0 x_3 + 0 x_4 + 1 x_5 + 0 x_6 + 0 x_7 + 0 x_8 + 1 x_9 + 0 x_10 + 1 x_11 + 0 x_12 + 0 x_13 + 1 x_14 + 0 x_15 + 1 x_16 + 0 x_17 + 0 x_18 + 0 x_19 + 0 x_20 + 0 x_21 + 0 x_22 + 0 x_23 + 0 x_24 + 1 x_25 + 0 x_26 + 0 x_27 + 0 x_28 + 0 x_29 + 0 x_30 + 0 x_31 + 0 x_32 + 0 x_33 + 1 x_34 + 0 x_35 + 1 x_36 + 0 x_37 + 0 x_38 + 0 x_39 + 0 x_40 + 0 x_41 + 0 x_42 + 1 x_43 + 0 x_44 + 0 x_45 + 0 x_46 + 1 x_47 + 0 x_48 + 1 x_49 >= 1
a7: 0 x_0 + 1 x_1 + 0 x_2 + 1 x_3 + 1 x_4 + 1 x_5 + 0 x_6 + 0 x_7 + 0 x_8 + 0 x_9 + 0 x_10 + 0 x_11 + 0 x_12 + 1 x_13 + 0 x_14 + 0 x_15 + 0 x_16 + 1 x_17 + 0 x_18 + 0 x_19 + 0 x_20 + 0 x_21 + 1 x_22 + 0 x_23 + 0 x_24 + 0 x_25 + 0 x_26 + 0 x_27 + 1 x_28 + 0 x_29 + 0 x_30 + 0 x_31 + 0 x_32 + 0 x_33 + 1 x_34 + 0 x_35 + 0 x_36 + 0 x_37 + 0 x_38 + 0 x_39 + 0 x_40 + 0 x_41 + 0 x_42 + 1 x_43 + 0 x_44 + 0 x_45 + 0 x_46 + 1 x_47 + 0 x_48 + 0 x_49 >= 1
a8: 0 x_0 + 0 x_1 + 0 x_2 + 1 x_3 + 0 x_4 + 0 x_5 + 0 x_6 + 0 x_7 + 0 x_8 + 0 x_9 + 1 x_10 + 0 x_11 + 0 x_12 + 0 x_13 + 0 x_14 + 0 x_15 + 1 x_16 + 1 x_17 + 0 x_18 + 0 x_19 + 0 x_20 + 1 x_21 + 0 x_22 + 0 x_23 + 0 x_24 + 0 x_25 + 0 x_26 + 1 x_27 + 0 x_28 + 0 x_29 + 0 x_30 + 0 x_31 + 0 x_32 + 0 x_33 + 0 x_34 + 0 x_35 + 0 x_36 + 0 x_37 + 0 x_38 + 0 x_39 + 0 x_40 + 1 x_41 + 0 x_42 + 0 x_43 + 0 x_44 + 0 x_45 + 0 x_46 + 0 x_47 + 0 x_48 + 0 x_49 >= 1
a9: 0 x_0 + 0 x_1 + 0 x_2 + 0 x_3 + 1 x_4 + 0 x_5 + 0 x_6 + 0 x_7 + 0 x_8 + 0 x_9 + 1 x_10 + 0 x_11 + 0 x_12 + 0 x_13 + 1 x_14 + 0 x_15 + 0 x_16 + 0 x_17 + 0 x_18 + 0 x_19 + 1 x_20 + 0 x_21 + 0 x_22 + 0 x_23 + 0 x_24 + 0 x_25 + 0 x_26 + 1 x_27 + 0 x_28 + 0 x_29 + 0 x_30 + 0 x_31 + 0 x_32 + 1 x_33 + 0 x_34 + 0 x_35 + 0 x_36 + 0 x_37 + 0 x_38 + 0 x_39 + 0 x_40 + 0 x_41 + 0 x_42 + 0 x_43 + 0 x_44 + 1 x_45 + 0 x_46 + 0 x_47 + 0 x_48 + 0 x_49 >= 1
b0: 1768.1 x_0 + 1952.8 x_1 + 1621.6 x_2 + 1412.1 x_3 + 1853.4 x_4 + 1680.5 x_5 + 1933.6 x_6 + 1492.8 x_7 + 1835.8 x_8 + 1387.0 x_9 + 1958.2 x_10 + 1095.9 x_11 + 1291.7 x_12 + 1812.9 x_13 + 1247.2 x_14 + 1691.4 x_15 + 1055.9 x_16 + 1973.2 x_17 + 1923.7 x_18 + 1139.8 x_19 + 1535.4 x_20 + 1524.7 x_21 + 1486.7 x_22 + 1650.6 x_23 + 1181.8 x_24 + 1532.1 x_25 + 1609.5 x_26 + 1006.4 x_27 + 1647.5 x_28 + 1252.1 x_29 + 1384.0 x_30 + 1821.9 x_31 + 1496.8 x_32 + 1597.0 x_33 + 1821.3 x_34 + 1940.1 x_35 + 1055.7 x_36 + 1312.4 x_37 + 1216.9 x_38 + 1744.0 x_39 + 1374.3 x_40 + 1493.7 x_41 + 1100.2 x_42 + 1492.6 x_43 + 1930.1 x_44 + 1388.7 x_45 + 1945.6 x_46 + 1946.1 x_47 + 1833.2 x_48 + 1944.4 x_49 <= 47560
c0: x_0 + x_19 <= 1
c1: x_0 + x_39 <= 1
c2: x_1 + x_13 <= 1
c3: x_1 + x_17 <= 1
c4: x_1 + x_23 <= 1
c5: x_2 + x_6 <= 1
c6: x_2 + x_9 <= 1
c7: x_2 + x_10 <= 1
c8: x_2 + x_11 <= 1
c9: x_3 + x_23 <= 1
c10: x_3 + x_44 <= 1
c11: x_4 + x_47 <= 1
c12: x_5 + x_7 <= 1
c13: x_5 + x_13 <= 1
c14: x_5 + x_28 <= 1
c15: x_6 + x_2 <= 1
c16: x_6 + x_17 <= 1
c17: x_6 + x_32 <= 1
c18: x_7 + x_5 <= 1
c19: x_7 + x_11 <= 1
c20: x_7 + x_46 <= 1
c21: x_8 + x_19 <= 1
c22: x_8 + x_43 <= 1
c23: x_9 + x_2 <= 1
c24: x_9 + x_25 <= 1
c25: x_10 + x_2 <= 1
c26: x_10 + x_16 <= 1
c27: x_11 + x_2 <= 1
c28: x_11 + x_7 <= 1
c29: x_11 + x_34 <= 1
c30: x_12 + x_18 <= 1
c31: x_12 + x_41 <= 1
c32: x_13 + x_1 <= 1
c33: x_13 + x_5 <= 1
c34: x_13 + x_26 <= 1
c35: x_14 + x_15 <= 1
c36: x_15 + x_14 <= 1
c37: x_15 + x_30 <= 1
c38: x_16 + x_10 <= 1
c39: x_17 + x_1 <= 1
c40: x_17 + x_6 <= 1
c41: x_18 + x_12 <= 1
c42: x_18 + x_20 <= 1
c43: x_19 + x_0 <= 1
c44: x_19 + x_8 <= 1
c45: x_20 + x_18 <= 1
c46: x_20 + x_25 <= 1
c47: x_21 + x_38 <= 1
c48: x_21 + x_40 <= 1
c49: x_22 + x_27 <= 1
c50: x_22 + x_45 <= 1
c51: x_23 + x_1 <= 1
c52: x_23 + x_3 <= 1
c53: x_24 + x_33 <= 1
c54: x_24 + x_37 <= 1
c55: x_25 + x_9 <= 1
c56: x_25 + x_20 <= 1
c57: x_25 + x_42 <= 1
c58: x_26 + x_13 <= 1
c59: x_26 + x_39 <= 1
c60: x_27 + x_22 <= 1
c61: x_28 + x_5 <= 1
c62: x_29 + x_47 <= 1
c63: x_30 + x_15 <= 1
c64: x_30 + x_37 <= 1
c65: x_30 + x_47 <= 1
c66: x_31 + x_37 <= 1
c67: x_32 + x_6 <= 1
c68: x_32 + x_49 <= 1
c69: x_33 + x_24 <= 1
c70: x_33 + x_43 <= 1
c71: x_34 + x_11 <= 1
c72: x_35 + x_41 <= 1
c73: x_36 + x_47 <= 1
c74: x_37 + x_24 <= 1
c75: x_37 + x_30 <= 1
c76: x_37 + x_31 <= 1
c77: x_38 + x_21 <= 1
c78: x_38 + x_41 <= 1
c79: x_39 + x_0 <= 1
c80: x_39 + x_26 <= 1
c81: x_40 + x_21 <= 1
c82: x_41 + x_12 <= 1
c83: x_41 + x_35 <= 1
c84: x_41 + x_38 <= 1
c85: x_42 + x_25 <= 1
c86: x_43 + x_8 <= 1
c87: x_43 + x_33 <= 1
c88: x_44 + x_3 <= 1
c89: x_45 + x_22 <= 1
c90: x_45 + x_46 <= 1
c91: x_46 + x_7 <= 1
c92: x_46 + x_45 <= 1
c93: x_46 + x_48 <= 1
c94: x_47 + x_4 <= 1
c95: x_47 + x_29 <= 1
c96: x_47 + x_30 <= 1
c97: x_47 + x_36 <= 1
c98: x_48 + x_46 <= 1
c99: x_49 + x_32 <= 1




Binary

x_0 x_1 x_2 x_3 x_4 x_5 x_6 x_7 x_8 x_9 x_10 x_11 x_12 x_13 x_14 x_15 x_16 x_17 x_18 x_19 x_20 x_21 x_22 x_23 x_24 x_25 x_26 x_27 x_28 x_29 x_30 x_31 x_32 x_33 x_34 x_35 x_36 x_37 x_38 x_39 x_40 x_41 x_42 x_43 x_44 x_45 x_46 x_47 x_48 x_49

 


End
